20191115 168950.78 168950.78
20180620 169000.00 141400.00
20171009 178857.97 141398.16
20161231 178857.97 137765.57
20161115 178857.97 137765.57
20151231 141398.16 137765.57
20151013 141398.16 137765.57
